
--- Job airAmbulance_trial1.gms Start 11/27/23 17:57:25 45.3.0 c4c31d8a WEX-WEI x86 64bit/MS Windows
--- Applying:
    C:\GAMS\45\gmsprmNT.txt
--- GAMS Parameters defined
    Input C:\Users\rashm\Downloads\CL643project\airAmbulance_trial1.gms
    PageSize 0
    ScrDir C:\Users\rashm\Downloads\CL643project\225a\
    SysDir C:\GAMS\45\
    LogOption 3
    ErrMsg 1
    ErrorLog 99
    IDE 1
    LstTitleLeftAligned 1
Licensee: GAMS Demo, for EULA and demo limitations see   G230930/0001CB-GEN
          https://www.gams.com/latest/docs/UG%5FLicense.html         DC0000
          C:\GAMS\45\gamslice.txt
          Demo license for demonstration and instructional purposes only
Processor information: 1 socket(s), 4 core(s), and 8 thread(s) available
GAMS 45.3.0   Copyright (C) 1987-2023 GAMS Development. All rights reserved
--- Starting compilation
--- airAmbulance_trial1.gms(39) 3 Mb
--- Starting execution: elapsed 0:00:00.005
--- Generating MIP model airAmbulanceReassignment
--- airAmbulance_trial1.gms(36) 4 Mb
---   6 rows  21 columns  61 non-zeroes
--- Range statistics (absolute non-zero finite values)
--- RHS       [min, max] : [ 1.000E+00, 2.000E+00] - Zero values observed as well
--- Bound     [min, max] : [        NA,        NA] - Zero values observed as well
--- Matrix    [min, max] : [ 1.000E+00, 5.408E+03]
--- Executing CPLEX (Solvelink=2): elapsed 0:00:00.012

IBM ILOG CPLEX   45.3.0 c4c31d8a Nov 11, 2023          WEI x86 64bit/MS Window

*** This solver runs with a demo license. No commercial use.
--- GMO setup time: 0.00s
--- GMO memory 0.50 Mb (peak 0.50 Mb)
--- Dictionary memory 0.00 Mb
--- Cplex 22.1.1.0 link memory 0.00 Mb (peak 0.00 Mb)
--- Starting Cplex

Version identifier: 22.1.1.0 | 2022-11-27 | 9160aff4d
CPXPARAM_Advance                                 0
CPXPARAM_Simplex_Display                         2
CPXPARAM_Threads                                 1
CPXPARAM_MIP_Display                             4
CPXPARAM_MIP_Pool_Capacity                       0
CPXPARAM_MIP_Tolerances_AbsMIPGap                0
Tried aggregator 1 time.
LP Presolve eliminated 0 rows and 1 columns.
Reduced LP has 5 rows, 20 columns, and 40 nonzeros.
Presolve time = 0.00 sec. (0.01 ticks)

Iteration      Dual Objective            In Variable           Out Variable
     1            2236.067977               zij(5,4)      balance2(5) slack
     2            4836.067977               zij(3,2)      balance2(3) slack
     3            6798.618349               zij(5,2)      balance2(4) slack
     4            7161.869060               zij(5,1)      balance2(2) slack

--- LP status (1): optimal.
--- Cplex Time: 0.00sec (det. 0.02 ticks)


Optimal solution found
Objective:         7161.869060

--- Reading solution for model airAmbulanceReassignment
*** Status: Normal completion
--- Job airAmbulance_trial1.gms Stop 11/27/23 17:57:25 elapsed 0:00:00.061
